\ Model 2D Bin Packing Optimization
\ LP format - for model browsing. Use MPS format to capture full model detail.
Minimize
  140 z[0] + 140 z[1] + 200 z[2] + 200 z[3] + 0 l[0,0] + 0 u[0,0]
Subject To
 con7[0,_0]-: - 300 p[0,0] - 300 p[0,1] - 192 p[0,2] - 192 p[0,3] + 30 r[0]
   + x[0] <= -29
 con7[0,_1]-: - 300 p[0,0] - 300 p[0,1] - 192 p[0,2] - 192 p[0,3] + 30 r[0]
   + x[0] <= -29
 con7[0,_2]-: - 300 p[0,0] - 300 p[0,1] - 192 p[0,2] - 192 p[0,3] + 30 r[0]
   + x[0] <= -29
 con7[0,_3]-: - 300 p[0,0] - 300 p[0,1] - 192 p[0,2] - 192 p[0,3] + 30 r[0]
   + x[0] <= -29
 con8[0,_0]-: - 155 p[0,0] - 155 p[0,1] - 155 p[0,2] - 155 p[0,3] - 30 r[0]
   + y[0] <= -59
 con8[0,_1]-: - 155 p[0,0] - 155 p[0,1] - 155 p[0,2] - 155 p[0,3] - 30 r[0]
   + y[0] <= -59
 con8[0,_2]-: - 155 p[0,0] - 155 p[0,1] - 155 p[0,2] - 155 p[0,3] - 30 r[0]
   + y[0] <= -59
 con8[0,_3]-: - 155 p[0,0] - 155 p[0,1] - 155 p[0,2] - 155 p[0,3] - 30 r[0]
   + y[0] <= -59
 con11[0]-: p[0,0] + p[0,1] + p[0,2] + p[0,3] = 1
 con12[0,_0]-: - p[0,0] + z[0] >= 0
 con12[0,_1]-: - p[0,1] + z[1] >= 0
 con12[0,_2]-: - p[0,2] + z[2] >= 0
 con12[0,_3]-: - p[0,3] + z[3] >= 0
 con14[0]-: = 2
 con15[0]-: y[0] + 100000 g[0] <= 100000
 con16[0]-: b1[0,0] <= 1
 con17[0]-: b2[0,0] <= 1
Bounds
Binaries
 p[0,0] p[0,1] p[0,2] p[0,3] z[0] z[1] z[2] z[3] l[0,0] u[0,0] r[0] g[0]
 b1[0,0] b2[0,0]
Generals
 x[0] y[0]
End
